30
3
20613
681 391 535
false
0.25
17 26 30 26 22 19 3 30 40 27 27 11 19 43 33 2 29 42 35 18 19 32 10 38 25 37 30 36 19 45
15 47 3 5 26 49 6 1 15 35 38 37 45 19 41 27 12 49 33 9 39 42 26 24 38 47 45 45 20 12
39 6 43 3 2 6 37 24 8 38 1 15 8 24 28 24 20 48 8 4 33 1 39 2 9 8 47 43 12 35
61 90 88 96 8 84 23 62 22 1 68 37 77 78 32 47 8 63 1 32 7 90 27 62 56 43 81 95 73 100
0 0 0 0 0 0 0 0 0 0 0 0 0 74 0 83 0 56 0 0 0 0 0 0 0 0 37 0 0 0
0 0 0 0 0 26 0 43 0 0 0 0 0 0 0 0 66 0 0 4 5 0 0 0 0 0 0 0 38
0 0 0 0 52 84 64 0 86 33 98 0 0 0 0 0 87 0 0 0 0 0 0 25 0 0 0 24
0 0 66 0 0 0 0 0 0 0 0 0 0 0 0 95 0 0 0 0 0 66 0 0 0 0 60
0 0 35 33 0 0 0 71 88 0 6 0 1 0 0 0 0 0 0 0 62 0 0 0 0 0
0 21 0 0 96 0 0 0 0 0 0 33 0 0 90 0 0 75 0 0 0 0 28 0 50
0 0 0 0 14 84 0 0 14 0 99 0 74 0 0 39 0 9 42 62 7 0 0 0
0 0 0 0 0 32 0 0 95 0 0 62 0 99 0 78 0 0 0 0 0 0 0
0 21 30 0 0 0 0 0 0 0 49 0 0 0 0 13 0 0 0 0 38 0
0 0 0 0 0 0 0 0 0 0 0 0 0 0 32 0 0 0 0 89 0
0 0 0 0 99 87 0 0 0 62 0 0 0 0 49 0 100 0 0 34
0 0 0 38 0 0 92 0 0 92 58 0 0 0 0 0 0 98 0
0 0 0 0 0 0 0 0 0 56 0 0 0 0 0 0 29 0
0 2 0 0 0 0 0 0 0 0 0 0 0 0 0 63 27
0 66 0 0 0 89 88 0 0 0 0 0 90 0 0 0
0 0 0 75 45 99 0 0 0 0 74 85 0 0 0
0 0 0 0 0 0 0 0 0 0 0 0 0 0
0 0 0 0 67 0 0 0 0 0 80 0 0
0 0 0 0 0 0 0 0 0 0 0 97
0 0 0 0 0 0 0 0 38 0 29
0 0 0 0 0 0 88 0 73 33
0 0 0 0 56 0 0 81 0
0 0 68 0 66 0 0 17
0 32 30 0 0 22 0
0 0 0 15 0 0
0 0 57 0 0
0 0 0 0
0 0 0
0 0
0 0 63 0 0 0 0 0 0 0 4 33 0 0 17 60 19 0 0 0 0 0 0 37 0 65 0 0 0
0 0 0 0 0 0 0 0 11 0 0 0 0 0 49 88 0 0 0 19 0 0 69 0 35 6 0 0
0 0 0 46 0 0 0 45 0 0 60 0 0 0 0 0 0 0 0 0 33 0 56 0 0 0 0
0 0 0 58 90 0 0 0 0 0 0 0 0 0 65 0 0 39 0 0 19 17 0 92 0 0
0 0 28 0 14 0 0 0 92 0 0 0 0 0 14 0 0 0 0 0 0 0 0 45 94
0 0 0 0 0 0 1 0 0 66 74 0 0 0 0 0 0 0 0 0 32 0 0 0
0 21 0 0 0 0 54 35 0 0 80 59 0 9 0 69 33 0 0 100 37 0 0
0 0 0 0 0 0 0 0 0 0 0 0 0 47 29 0 0 0 0 0 14 0
0 0 83 0 0 0 0 0 0 0 0 0 0 0 0 21 0 59 39 0 0
0 13 0 13 0 51 0 0 0 0 93 0 0 0 0 0 0 30 0 0
0 0 0 0 0 0 0 0 0 0 15 16 0 13 0 0 0 0 0
0 0 0 3 0 0 68 0 33 70 26 58 0 70 12 0 0 0
0 0 6 0 31 0 12 19 0 0 0 0 0 0 0 0 0
0 0 0 82 0 0 13 0 0 0 0 0 0 0 0 0
0 0 0 96 0 0 0 0 60 92 13 79 0 0 0
0 0 13 0 0 33 0 0 20 0 0 0 0 38
0 0 0 0 0 0 0 0 0 0 0 0 0
0 0 0 0 0 0 37 0 0 45 0 0
0 0 0 0 16 0 48 0 83 0 0
0 0 0 0 0 73 0 68 0 71
0 0 0 0 68 0 47 0 0
0 75 0 0 0 0 0 0
0 0 0 0 40 0 0
0 0 35 0 0 0
0 0 0 0 0
0 34 0 0
0 0 0
0 0
0
0 0 0 0 0 0 11 0 0 0 51 0 0 0 0 0 0 0 68 0 0 0 0 0 36 41 0 54
0 92 0 19 0 100 1 0 48 0 0 0 55 0 0 0 17 0 92 0 0 0 0 0 0 0 0
0 0 0 0 0 0 0 0 26 42 0 0 86 22 2 0 42 0 0 96 0 0 64 0 0 0
0 0 0 0 0 0 43 0 0 0 0 1 0 0 0 0 0 0 0 0 0 0 25 0 0
0 0 0 0 0 0 61 0 0 54 0 0 0 0 0 0 63 0 0 0 0 94 0 0
0 0 7 0 21 0 0 0 0 59 74 0 0 0 0 87 0 0 0 0 0 0 56
0 0 0 0 0 0 0 0 0 0 0 0 0 0 0 0 69 48 0 0 0 0
0 43 0 0 32 0 0 0 0 0 0 0 29 87 7 0 98 15 0 0 78
0 0 0 0 0 60 48 0 37 31 38 72 0 25 49 0 0 0 0 50
0 0 0 0 0 0 0 0 0 95 48 0 0 51 0 0 52 0 48
0 29 0 0 75 54 50 0 91 0 0 14 0 0 0 27 0 0
0 0 0 0 0 0 0 0 0 0 85 0 67 0 64 0 0
0 67 0 0 68 44 0 0 0 0 0 0 0 0 0 0
0 0 0 0 0 0 0 84 52 61 0 90 0 0 0
0 68 0 0 0 0 0 0 0 0 0 81 98 20
0 9 0 0 0 94 69 27 0 78 44 0 78
0 0 0 0 0 0 0 0 0 0 0 0
0 0 0 0 0 0 0 0 0 0 0
0 0 0 0 0 0 0 51 0 0
0 0 0 24 0 0 68 51 0
0 88 0 0 0 0 0 0
0 0 0 0 0 0 0
0 0 0 0 22 0
0 0 0 0 0
0 0 0 6
0 0 0
0 0
0
0 0 0 76 50 0 22 0 0 0 52 0 0 0 0 0 0 0 0 0 9 0 0 0 0 0 0
0 55 0 73 86 0 0 0 0 0 0 0 0 0 0 0 18 0 0 0 0 0 0 75 0 0
0 0 0 0 0 0 0 0 0 98 0 2 0 77 0 0 0 0 0 75 0 37 0 31 79
0 0 0 0 0 0 18 0 0 0 0 0 0 0 0 0 0 0 0 0 0 6 0 0
0 78 0 0 0 46 93 0 0 0 0 0 0 0 0 0 73 0 0 0 0 76 0
0 0 0 59 41 0 18 0 0 0 44 91 0 0 0 0 0 16 0 0 0 0
0 0 0 0 46 0 46 0 0 0 0 0 0 52 6 0 66 0 91 0 0
0 0 64 0 21 0 0 0 47 0 0 0 51 0 0 0 2 80 9 56
0 0 0 0 0 0 0 3 0 0 0 0 0 0 20 0 0 0 0
0 0 0 0 73 0 0 0 40 0 0 61 0 0 0 0 0 0
0 0 0 0 0 0 0 0 0 0 0 0 91 0 0 0 99
0 0 0 0 22 0 3 88 0 0 0 7 0 0 0 0
0 0 7 0 0 0 52 0 0 0 0 0 16 83 0
0 3 92 0 0 0 0 85 0 59 0 0 0 0
0 0 0 40 43 72 0 17 0 0 0 0 34
0 41 0 0 0 59 0 0 0 0 92 0
0 0 0 25 0 0 16 0 89 0 77
0 28 27 0 0 0 0 2 0 0
0 68 0 0 0 0 0 0 0
0 0 5 0 0 0 0 0
0 68 0 0 0 0 66
0 0 0 47 0 69
0 0 0 0 0
0 0 0 0
0 0 29
0 0
0
0 0 0 0 0 0 0 0 0 0 0 0 0 9 53 59 75 0 0 0 67 0 0 15 77 0
0 4 81 0 0 0 0 0 0 0 76 0 0 0 0 38 0 0 0 0 0 0 0 0 0
0 0 0 0 0 0 0 41 28 0 0 0 12 0 0 80 39 0 63 0 0 0 0 0
0 0 0 0 0 0 0 0 0 0 0 96 0 0 54 85 0 0 92 0 80 0 0
0 0 0 34 0 0 0 70 0 0 0 43 0 0 0 28 0 75 0 0 0 0
0 94 0 0 8 0 0 0 0 0 22 0 63 0 0 0 15 81 0 0 78
0 0 0 69 0 0 0 0 70 93 0 0 0 0 0 93 0 0 0 0
0 0 0 0 29 0 0 82 0 0 0 39 78 0 0 0 0 20 0
0 65 0 0 93 0 8 0 0 0 0 0 19 0 82 0 0 0
0 44 0 0 83 0 0 69 0 7 21 0 0 0 0 86 0
0 0 21 47 0 0 0 0 80 0 0 0 81 0 0 0
0 0 0 0 0 0 0 0 18 0 0 0 0 0 0
0 0 0 0 79 0 0 25 92 18 0 0 0 0
0 0 78 0 9 0 23 0 0 0 0 0 0
0 57 0 0 0 0 0 0 0 0 0 0
0 0 0 0 0 0 79 99 0 0 0
0 0 0 0 0 0 0 0 0 0
0 0 0 0 44 0 0 0 0
0 0 64 73 0 0 0 0
0 0 0 0 0 0 0
0 0 0 0 1 33
0 0 0 0 0
0 0 0 0
0 0 8
0 0
0
0 0 0 0 52 50 57 0 0 0 78 0 0 0 0 0 0 0 60 80 65 0 0 77 72
0 0 0 0 93 0 0 0 0 0 0 0 73 45 0 0 0 60 0 48 0 58 0 0
0 85 0 0 0 92 0 0 15 0 50 0 4 0 0 0 0 0 0 0 0 0 0
0 32 0 0 0 15 0 0 0 0 0 0 77 0 0 81 0 96 58 71 0 0
0 22 0 0 0 42 0 5 16 77 0 0 23 0 47 0 0 0 0 0 66
0 0 0 0 0 62 0 0 0 0 0 0 0 0 0 0 0 0 0 0
0 0 0 0 47 0 0 0 0 0 0 6 0 0 0 0 0 0 0
0 0 42 0 0 21 0 0 0 0 47 0 0 0 0 31 67 0
0 0 0 0 0 0 0 64 0 25 0 0 95 0 0 0 0
0 0 0 0 0 21 4 55 0 0 0 81 0 0 0 0
0 2 0 0 0 0 0 58 33 4 0 0 34 0 0
0 0 57 28 0 93 0 0 0 0 40 0 0 0
0 0 0 0 0 0 23 0 46 0 0 0 79
0 0 0 0 0 80 0 0 0 0 0 0
0 0 0 0 0 66 0 0 0 0 0
0 0 0 24 0 0 0 0 0 0
0 0 26 0 3 0 0 0 0
0 0 63 0 0 0 0 0
0 0 0 0 72 0 0
0 0 0 0 0 0
0 0 0 0 0
0 0 0 0
0 0 46
0 0
0
0 0 0 0 0 0 0 10 0 0 0 7 16 0 33 0 0 0 0 0 0 65 7 0
0 0 18 13 0 0 0 0 0 0 0 0 0 50 0 0 0 0 0 91 0 61 0
0 11 0 0 0 0 0 0 0 0 0 35 0 0 0 72 0 0 0 0 95 0
0 0 0 0 72 0 0 0 0 0 55 0 0 0 1 64 0 0 0 25 0
0 0 0 0 0 0 3 0 0 0 0 70 0 6 0 0 0 0 0 0
0 0 0 0 82 0 0 0 0 56 92 0 29 0 41 40 0 0 0
0 45 0 0 56 40 0 0 0 0 0 0 0 0 0 86 12 0
0 66 0 0 12 0 0 0 1 0 0 0 0 0 0 0 0
0 0 0 0 0 0 0 0 61 0 2 0 0 0 0 0
0 0 0 57 34 75 0 91 0 0 0 0 0 0 23
0 0 48 0 0 60 37 0 0 27 68 0 0 0
0 12 0 0 0 20 49 0 0 0 70 86 18
0 0 0 0 0 19 0 0 0 0 0 0
0 79 0 0 0 0 0 0 0 29 48
0 0 0 0 0 0 0 0 89 0
0 0 0 0 0 16 0 15 0
0 4 79 0 0 8 93 0
0 0 0 0 0 0 0
0 0 11 0 0 0
0 33 0 40 23
0 0 0 0
0 64 54
0 0
0
0 0 0 0 0 0 0 50 0 0 10 0 0 0 70 0 20 0 92 64 0 0 0
0 45 0 0 0 0 51 0 0 0 0 0 0 0 0 0 71 0 0 0 0 0
0 95 0 0 0 89 20 0 0 0 63 0 59 0 0 0 0 0 0 49 0
0 55 61 0 0 0 0 0 0 22 0 0 0 94 0 0 0 0 0 0
0 0 0 0 0 2 0 0 0 0 0 0 1 0 0 0 0 0 0
0 76 0 0 0 13 0 0 0 0 0 0 0 0 0 0 0 0
0 59 99 0 0 0 0 0 59 0 0 0 0 0 0 0 94
0 18 0 0 0 0 27 0 28 0 0 0 0 0 0 39
0 0 0 0 89 0 0 0 0 57 0 0 0 100 44
0 0 0 11 0 0 0 62 0 35 34 0 42 0
0 0 0 0 0 0 0 0 0 0 49 0 0
0 0 0 46 0 0 0 0 21 0 0 88
0 0 0 0 0 66 0 69 17 0 13
0 0 0 0 20 0 0 0 0 0
0 0 0 0 50 0 0 0 0
0 0 0 77 0 0 0 0
0 0 0 0 0 0 0
0 0 0 0 0 0
0 0 9 5 0
0 35 0 50
0 0 0
0 38
0
0 0 47 0 0 0 0 82 0 0 38 21 0 70 88 69 0 0 40 0 57 0
0 0 0 0 0 0 77 0 0 0 0 0 0 2 0 0 74 0 0 53 81
0 100 0 93 0 27 28 0 0 57 79 0 0 0 0 0 0 0 0 0
0 0 0 0 0 29 0 52 0 0 0 0 0 83 0 0 0 0 22
0 0 0 0 0 0 0 0 0 0 0 0 58 0 0 0 7 0
0 0 0 0 0 0 0 0 0 0 0 0 0 0 0 0 48
0 0 0 79 48 0 0 0 97 0 0 0 0 64 99 10
0 0 0 38 0 0 0 0 0 0 0 0 0 0 0
0 0 0 75 0 0 0 0 99 0 0 0 0 0
0 48 0 0 0 0 0 0 0 0 0 0 94
0 0 0 0 0 0 0 0 0 0 0 0
0 0 0 0 0 0 6 0 0 51 91
0 0 0 0 0 0 64 0 0 0
0 0 0 0 86 0 66 0 0
0 0 0 0 0 0 0 0
0 0 0 0 93 0 0
0 0 0 0 0 0
0 0 0 0 0
0 0 0 0
0 84 72
0 0
0
0 0 0 0 0 0 0 0 0 0 8 0 71 0 0 0 80 0 0 0 54
0 0 69 29 0 0 44 0 97 0 0 0 0 0 56 0 0 0 79 51
0 0 100 46 0 34 27 0 0 83 0 0 0 0 0 0 0 0 0
0 90 0 0 0 0 0 0 24 0 0 0 0 0 0 0 10 0
0 0 16 24 0 0 0 0 0 2 0 6 0 0 0 69 0
0 0 68 0 0 0 81 0 0 0 0 0 0 87 93 46
0 0 0 0 50 0 0 0 92 0 25 0 0 0 0
0 0 0 43 60 0 0 0 0 0 0 36 0 0
0 56 0 0 0 0 0 0 0 0 0 0 74
0 0 0 0 0 0 83 0 0 0 0 0
0 0 0 19 0 0 61 0 84 0 3
0 0 0 0 0 0 0 0 0 0
0 0 0 0 0 0 13 0 57
0 0 0 0 0 0 0 0
0 0 0 22 0 0 0
0 26 0 0 0 20
0 0 100 0 0
0 0 0 64
0 83 53
0 0
0
0 0 72 0 0 0 0 0 57 67 0 0 0 0 0 0 0 34 0 2
0 38 0 60 0 0 0 0 0 0 73 0 0 0 0 0 0 0 0
0 31 0 0 21 0 0 0 0 0 91 0 0 0 0 0 26 92
0 0 0 0 0 0 0 71 0 78 0 0 0 39 0 0 99
0 0 0 0 0 72 17 0 30 25 3 0 0 0 0 0
0 0 0 0 0 91 0 0 0 0 60 0 0 0 88
0 100 0 72 0 48 78 0 0 84 0 0 0 0
0 0 0 0 0 0 0 0 0 0 0 0 74
0 0 0 0 0 0 7 57 72 97 0 78
0 0 14 0 0 0 34 0 0 0 0
0 0 0 54 0 0 0 54 72 0
0 0 0 0 0 34 0 0 0
0 50 93 0 0 0 0 0
0 0 0 0 70 6 50
0 100 0 79 45 0
0 44 0 0 0
0 0 0 0
0 57 0
0 0
0
0 0 0 43 0 90 33 0 0 32 30 0 21 0 0 0 0 0 0
0 0 0 0 0 0 0 0 0 0 0 0 95 0 0 0 0 0
0 0 0 0 0 0 0 0 0 0 0 0 0 0 0 0 0
0 0 0 44 0 0 0 0 0 0 0 0 39 26 0 79
0 0 34 68 0 0 50 78 0 44 100 0 0 27 21
0 0 44 0 54 0 0 54 0 11 0 53 0 0
0 0 0 53 40 23 0 89 0 0 0 51 0
0 84 92 0 0 0 22 96 41 47 0 0
0 0 0 0 0 0 0 0 0 0 0
0 0 0 0 0 53 0 0 0 0
0 0 54 4 0 0 0 0 0
0 0 0 29 72 0 83 0
0 0 0 0 0 32 0
0 0 0 0 0 0
0 75 0 0 0
0 0 0 94
0 0 0
0 37
0
0 0 19 0 0 89 0 0 74 0 0 0 0 0 46 61 0 0
0 0 0 0 25 0 0 90 74 98 0 0 0 0 7 0 0
0 0 27 0 0 0 0 0 0 0 0 0 97 96 0 0
0 33 0 0 0 0 0 0 88 76 0 0 0 24 0
0 0 0 28 0 0 0 0 0 0 0 22 94 0
0 0 0 0 60 0 57 0 0 0 0 98 66
0 0 0 0 0 0 0 0 0 52 0 0
0 0 30 0 0 0 35 0 0 55 39
0 0 0 0 0 0 0 77 9 78
0 0 7 0 47 0 0 0 48
0 0 82 0 0 0 79 0
0 0 0 0 0 0 0
0 0 20 0 0 84
0 55 5 0 0
0 0 0 0
0 0 27
0 0
0
0 0 43 68 0 0 0 0 0 0 87 0 0 0 0 59 34
0 81 0 0 87 36 0 0 0 20 0 0 0 0 0 78
0 0 0 78 0 41 0 0 0 49 0 0 0 0 0
0 0 0 0 0 18 0 0 0 0 0 0 0 0
0 0 0 99 0 0 0 0 98 0 0 0 0
0 21 0 0 35 6 0 0 0 0 0 0
0 0 0 36 0 84 0 0 0 0 82
0 0 0 25 0 0 0 0 55 0
0 0 0 69 0 0 0 0 0
0 0 0 0 0 0 0 0
0 0 0 0 0 0 0
0 94 0 0 98 0
0 0 0 87 0
0 0 0 0
0 0 89
0 79
0
0 0 4 0 0 0 80 0 0 22 46 0 0 0 0 66
0 0 0 0 0 0 0 0 8 0 0 0 0 0 59
0 0 0 0 0 0 0 0 0 0 0 0 0 0
0 4 0 0 0 0 0 36 65 91 36 0 0
0 0 35 0 98 0 0 0 0 0 35 5
0 0 0 0 0 0 0 0 0 0 0
0 0 67 0 0 0 34 0 0 0
0 0 49 0 0 0 41 49 0
0 0 0 0 0 0 0 0
0 0 0 24 0 42 0
0 0 0 0 11 0
0 0 0 0 0
0 0 0 0
0 0 0
0 0
0
0 0 0 0 0 0 55 0 44 0 0 0 0 0 0
0 0 0 0 0 0 0 0 0 70 0 0 0 0
0 0 0 94 0 23 76 0 0 0 0 0 0
0 61 0 0 0 21 48 0 0 0 0 89
0 0 0 42 44 56 0 0 0 98 0
0 0 0 46 0 0 0 0 0 0
0 0 0 0 0 0 0 94 0
0 0 0 0 64 38 0 23
0 44 0 0 62 0 0
0 0 0 0 0 0
0 0 0 6 85
0 0 0 95
0 49 0
0 45
0
0 0 0 25 0 49 0 0 44 37 0 0 0 10
0 0 99 0 73 0 0 0 89 60 0 0 0
0 64 0 0 91 0 17 0 0 0 0 0
0 0 94 95 0 0 0 0 17 0 0
0 22 56 72 61 7 50 0 65 0
0 0 12 0 0 0 0 0 0
0 68 0 0 3 0 0 69
0 0 0 0 25 0 0
0 0 0 0 0 0
0 0 0 0 0
0 0 0 0
0 0 21
0 0
0
0 0 0 0 76 0 0 0 27 0 0 0 0
0 0 0 0 0 0 0 0 52 0 0 0
0 0 0 0 0 0 0 99 0 0 0
0 68 0 0 0 0 96 80 2 0
0 0 0 0 0 0 0 16 0
0 0 0 0 0 88 0 0
0 19 85 0 0 0 69
0 0 96 81 0 50
0 54 0 0 0
0 0 0 86
0 0 0
0 0
0
0 0 0 0 0 23 0 0 73 0 0 0
0 0 89 0 0 0 27 0 0 0 0
0 0 0 0 83 0 0 0 58 0
0 87 0 0 0 45 0 0 0
0 0 54 87 0 0 0 0
0 61 0 13 0 86 0
0 92 18 0 0 56
0 0 27 0 0
0 0 0 0
0 0 0
0 0
0
0 6 0 76 0 0 6 0 0 79 10
0 0 0 39 0 0 0 0 0 21
0 0 0 81 0 47 0 0 0
0 91 23 0 52 0 49 14
0 0 0 0 58 64 0
0 0 37 0 51 0
0 0 0 0 0
0 89 0 0
0 0 0
0 0
0
0 0 0 0 68 27 0 81 0 0
0 0 0 38 37 0 0 0 0
0 0 0 0 0 0 0 0
0 65 0 95 0 0 0
0 69 0 92 36 0
0 0 0 0 36
0 0 0 0
0 0 0
0 31
0
0 0 0 98 0 0 73 0 43
0 0 0 0 0 0 0 0
0 0 0 0 0 0 0
0 27 0 4 0 0
0 53 54 0 0
0 0 56 13
0 0 0
0 0
0
0 0 0 0 0 0 31 29
0 0 0 0 0 40 77
0 13 77 0 0 0
0 0 0 61 13
0 36 0 0
0 0 0
0 0
0
0 0 0 0 0 0 0
0 0 17 51 75 36
0 0 0 0 0
0 0 0 0
0 0 0
0 0
0
0 35 0 0 14 0
0 0 44 4 0
0 0 0 0
0 0 58
0 29
0
0 95 0 0 0
0 0 0 0
0 75 6
0 0
0
0 0 6 69
0 0 0
0 0
0
0 0 0
0 0
0
0 96
0
0
4686 5488 5308 5333 5305 5223 4715 6040 5467 6050 6162 5299 5380 4903 5613 6423 5238 5766 5748 5433 5685 5217 5273 5144 6063 5564 5019 5858 5576 6192
236.06696832579186 414.1698490634661 689.902842377261 1016.4606837606838 1032.558275058275 417.3288578589331 828.3108108108108 2164.3333333333335 394.8388888888889 185.38058108233545 2184.1267056530214 326.0700518700519 358.40448343079925 192.12251801985585 169.15254460986168 1239.0046296296296 293.00689655172414 125.0280612244898 352.30346320346325 754.5833333333334 205.75082811924918 1834.7485119047617 288.43760683760684 973.9005847953216 358.57976608187136 321.4204523672609 128.54018912529554 143.0441860465116 345.64678362573096 276.83809523809526
